<number of tasks>
50

<cycle time>
1000

<order strength>
0.6


<task times>
1 503
2 430
3 302
4 256
5 568
6 569
7 472
8 473
9 548
10 567
11 528
12 474
13 492
14 448
15 305
16 483
17 640
18 595
19 495
20 758
21 642
22 511
23 670
24 461
25 643
26 479
27 677
28 333
29 553
30 468
31 599
32 223
33 523
34 386
35 438
36 367
37 410
38 417
39 570
40 462
41 481
42 431
43 434
44 521
45 544
46 411
47 613
48 544
49 749
50 428

<precedence relations>
1,4
2,7
3,5
3,6
3,8
3,9
4,10
5,11
6,12
7,13
8,13
9,13
10,14
11,15
12,16
13,14
13,15
13,16
13,17
14,18
14,19
14,20
14,21
15,20
15,21
16,20
16,21
17,20
17,21
18,22
19,23
20,24
20,25
20,28
21,25
22,28
23,26
24,27
25,29
25,30
25,31
26,32
27,34
28,34
28,39
29,33
29,35
30,35
30,36
31,35
32,37
33,38
33,39
33,40
33,41
34,45
35,40
35,41
36,39
36,41
37,42
38,43
39,44
39,49
40,46
41,45
41,46
41,48
42,48
43,49
44,47
46,50

<end>
